letting n =  10
letting blocks =  [[1, 1], [1, 2], [1, 5], [1, 7], [1, 10], [2, 2], [2, 6], [2, 10], [3, 1], [3, 4], [3, 6], [3, 7], [3, 8], [4, 1], [4, 2], [4, 4], [4, 5], [4, 6], [4, 9], [5, 3], [5, 4], [5, 6], [5, 8], [6, 4], [6, 6], [6, 7], [6, 9], [6, 10], [7, 1], [7, 2], [7, 5], [7, 7], [7, 9], [7, 10], [8, 1], [8, 2], [8, 5], [8, 8], [8, 10], [9, 2], [9, 4], [9, 7], [9, 9], [10, 1], [10, 4], [10, 5], [10, 9], [10, 10]]
